\ENCODING=ISO-8859-1
\Problem name: 

Maximize
 obj: x1 + x2 + x3 + x4 + x5 + x6 + x7 + x8 + x9 + x10 + x11 + x12 + x13 + x14
      + x15 + x16 + x17 + x18 + x19 + x20 + x21 + x22 + x23 + x24 + x25 + x26
      + x27 + x28 + x29 + x30 + x31 + x32 + x33 + x34 + x35 + x36 + x37 + x38
      + x39 + x40 + x41 + x42 + x43 + x44 + x45 + x46 + x47 + x48 + x49 + x50
      + x51 + x52 + x53 + x54 + x55 + x56 + x57 + x58 + x59 + x60 + x61 + x62
      + x63 + x64 + x65 + x66 + x67 + x68 + x69 + x70 + x71 + x72 + x73 + x74
      + x75 + x76 + x77 + x78 + x79 + x80 + x81 + x82 + x83 + x84 + x85 + x86
      + x87 + x88 + x89 + x90 + x91 + x92 + x93 + x94 + x95 + x96 + x97 + x98
      + x99 + x100 + x101 + x102 + x103 + x104 + x105 + x106 + x107 + x108
      + x109 + x110 + x111 + x112 + x113 + x114 + x115 + x116 + x117 + x118
      + x119 + x120 + x121 + x122 + x123 + x124 + x125 + x126 + x127 + x128
      + x129 + x130 + x131 + x132 + x133 + x134 + x135 + x136 + x137 + x138
      + x139 + x140 + x141 + x142 + x143 + x144 + x145 + x146 + x147 + x148
      + x149 + x150
Subject To
 clq1:   x18 + x143 + x144 <= 1
 clq2:   x17 + x94 <= 1
 clq3:   x136 + x143 + x145 <= 1
 clq4:   x72 + x99 <= 1
 clq5:   x47 + x114 <= 1
 clq6:   x52 + x111 + x116 <= 1
 clq7:   x86 + x93 + x99 <= 1
 clq8:   x26 + x56 + x145 <= 1
 clq9:   x107 + x141 <= 1
 clq10:  x26 + x56 + x61 <= 1
 clq11:  x20 + x39 + x94 <= 1
 clq12:  x52 + x146 <= 1
 clq13:  x60 + x68 <= 1
 clq14:  x24 + x41 + x66 <= 1
 clq15:  x43 + x63 <= 1
 clq16:  x10 + x97 <= 1
 clq17:  x34 + x68 + x106 <= 1
 clq18:  x49 + x73 + x139 <= 1
 clq19:  x49 + x68 + x133 <= 1
 clq20:  x85 + x109 <= 1
 clq21:  x37 + x48 + x105 <= 1
 clq22:  x51 + x60 <= 1
 clq23:  x31 + x86 + x110 <= 1
 clq24:  x19 + x24 + x145 <= 1
 clq25:  x26 + x54 <= 1
 clq26:  x35 + x112 <= 1
 clq27:  x33 + x77 + x117 <= 1
 clq28:  x61 + x81 + x122 <= 1
 clq29:  x55 + x61 + x131 <= 1
 clq30:  x26 + x37 + x61 <= 1
 clq31:  x76 + x99 <= 1
 clq32:  x73 + x74 + x131 <= 1
 clq33:  x37 + x105 + x148 <= 1
 clq34:  x30 + x36 + x117 <= 1
 clq35:  x42 + x132 <= 1
 clq36:  x90 + x143 + x144 <= 1
 clq37:  x117 + x130 <= 1
 clq38:  x145 + x149 <= 1
 clq39:  x53 + x126 + x141 <= 1
 clq40:  x28 + x77 <= 1
 clq41:  x33 + x69 + x147 <= 1
 clq42:  x42 + x67 <= 1
 clq43:  x23 + x75 + x104 <= 1
 clq44:  x131 + x137 + x147 <= 1
 clq45:  x74 + x90 + x144 <= 1
 clq46:  x14 + x17 + x146 <= 1
 clq47:  x17 + x83 <= 1
 clq48:  x5 + x53 + x101 + x141 <= 1
 clq49:  x19 + x79 + x98 <= 1
 clq50:  x6 + x13 + x48 <= 1
 clq51:  x35 + x83 + x138 <= 1
 clq52:  x102 + x131 <= 1
 clq53:  x30 + x113 <= 1
 clq54:  x29 + x47 + x97 <= 1
 clq55:  x27 + x83 + x136 <= 1
 clq56:  x107 + x117 + x143 <= 1
 clq57:  x21 + x30 + x40 <= 1
 clq58:  x80 + x81 + x122 <= 1
 clq59:  x23 + x24 + x93 <= 1
 clq60:  x60 + x98 + x104 <= 1
 clq61:  x49 + x72 + x129 <= 1
 clq62:  x25 + x31 + x125 <= 1
 clq63:  x52 + x74 <= 1
 clq64:  x94 + x111 + x137 <= 1
 clq65:  x67 + x89 + x139 <= 1
 clq66:  x9 + x50 <= 1
 clq67:  x50 + x73 + x137 <= 1
 clq68:  x51 + x126 <= 1
 clq69:  x6 + x94 + x141 <= 1
 clq70:  x61 + x72 + x131 <= 1
 clq71:  x73 + x136 <= 1
 clq72:  x1 + x74 + x93 <= 1
 clq73:  x20 + x71 <= 1
 clq74:  x56 + x80 + x90 <= 1
 clq75:  x67 + x68 + x87 <= 1
 clq76:  x56 + x139 + x145 <= 1
 clq77:  x23 + x86 + x134 <= 1
 clq78:  x34 + x69 + x128 <= 1
 clq79:  x15 + x37 + x120 + x127 <= 1
 clq80:  x1 + x21 + x142 <= 1
 clq81:  x12 + x45 + x150 <= 1
 clq82:  x8 + x42 + x82 <= 1
 clq83:  x39 + x60 + x98 <= 1
 clq84:  x13 + x113 <= 1
 clq85:  x70 + x98 <= 1
 clq86:  x39 + x75 <= 1
 clq87:  x50 + x92 + x137 <= 1
 clq88:  x2 + x91 <= 1
 clq89:  x90 + x109 + x143 <= 1
 clq90:  x95 + x96 + x126 <= 1
 clq91:  x51 + x71 <= 1
 clq92:  x11 + x54 + x78 <= 1
 clq93:  x12 + x66 + x122 <= 1
 clq94:  x19 + x36 + x117 <= 1
 clq95:  x53 + x83 + x101 <= 1
 clq96:  x11 + x19 <= 1
 clq97:  x89 + x113 + x149 <= 1
 clq98:  x74 + x132 <= 1
 clq99:  x56 + x63 + x88 + x110 <= 1
 clq100: x8 + x101 + x141 <= 1
 clq101: x16 + x101 + x108 <= 1
 clq102: x19 + x39 + x98 <= 1
 clq103: x3 + x134 <= 1
 clq104: x36 + x117 + x127 <= 1
 clq105: x56 + x139 + x142 <= 1
 clq106: x87 + x100 + x129 <= 1
 clq107: x83 + x91 + x138 <= 1
 clq108: x29 + x93 + x108 <= 1
 clq109: x72 + x142 <= 1
 clq110: x5 + x62 + x146 <= 1
 clq111: x29 + x68 <= 1
 clq112: x20 + x108 + x113 <= 1
 clq113: x30 + x34 + x75 <= 1
 clq114: x2 + x102 <= 1
 clq115: x66 + x90 + x143 <= 1
 clq116: x31 + x90 + x125 <= 1
 clq117: x56 + x98 + x139 <= 1
 clq118: x95 + x129 + x146 <= 1
 clq119: x32 + x115 <= 1
 clq120: x33 + x64 + x115 <= 1
 clq121: x7 + x92 <= 1
 clq122: x6 + x11 + x102 <= 1
 clq123: x25 + x109 + x135 <= 1
 clq124: x3 + x84 <= 1
 clq125: x3 + x56 + x80 <= 1
 clq126: x50 + x142 <= 1
 clq127: x40 + x114 + x138 <= 1
 clq128: x25 + x139 <= 1
 clq129: x22 + x43 + x85 <= 1
 clq130: x27 + x124 + x133 <= 1
 clq131: x71 + x124 <= 1
 clq132: x66 + x67 + x98 <= 1
 clq133: x77 + x91 <= 1
 clq134: x4 + x75 <= 1
 clq135: x66 + x119 + x131 <= 1
 clq136: x32 + x40 <= 1
 clq137: x107 + x132 <= 1
 clq138: x79 + x86 + x110 <= 1
 clq139: x27 + x123 + x136 <= 1
 clq140: x103 + x115 + x144 <= 1
 clq141: x50 + x141 + x144 <= 1
 clq142: x55 + x60 + x78 + x139 <= 1
 clq143: x66 + x117 + x143 <= 1
 clq144: x83 + x118 <= 1
 clq145: x24 + x36 + x66 <= 1
 clq146: x28 + x43 + x119 <= 1
 clq147: x80 + x82 + x96 <= 1
 clq148: x27 + x104 + x133 <= 1
 clq149: x19 + x79 + x117 <= 1
 clq150: x37 + x42 + x65 <= 1
 clq151: x84 + x125 + x140 <= 1
 clq152: x69 + x123 <= 1
 clq153: x82 + x131 <= 1
 clq154: x5 + x47 + x104 <= 1
 clq155: x65 + x120 + x142 <= 1
 clq156: x67 + x92 + x131 <= 1
 clq157: x15 + x64 <= 1
 clq158: x37 + x45 + x120 + x127 <= 1
 clq159: x67 + x81 + x115 <= 1
 clq160: x27 + x104 + x129 <= 1
 clq161: x86 + x140 + x141 <= 1
 clq162: x61 + x70 + x115 <= 1
 clq163: x71 + x86 + x110 <= 1
 clq164: x9 + x26 <= 1
 clq165: x45 + x64 + x87 <= 1
 clq166: x21 + x96 + x134 <= 1
 clq167: x7 + x61 + x72 <= 1
 clq168: x34 + x75 + x120 <= 1
 clq169: x4 + x130 + x141 <= 1
 clq170: x5 + x92 + x101 <= 1
 clq171: x51 + x133 <= 1
 clq172: x37 + x77 + x148 <= 1
 clq173: x56 + x86 + x110 <= 1
 clq174: x71 + x84 <= 1
 clq175: x49 + x108 + x116 <= 1
 clq176: x57 + x75 <= 1
 clq177: x39 + x111 + x116 <= 1
 clq178: x31 + x146 <= 1
 clq179: x43 + x51 + x99 <= 1
 clq180: x68 + x143 <= 1
 clq181: x9 + x87 <= 1
 clq182: x38 + x130 <= 1
 clq183: x27 + x67 <= 1
 clq184: x21 + x80 + x146 <= 1
 clq185: x8 + x9 + x35 <= 1
 clq186: x71 + x86 + x138 <= 1
 clq187: x23 + x144 <= 1
 clq188: x88 + x100 + x102 <= 1
 clq189: x11 + x45 + x109 + x127 <= 1
 clq190: x17 + x126 <= 1
 clq191: x72 + x90 + x111 <= 1
 clq192: x5 + x77 <= 1
 clq193: x42 + x82 + x96 <= 1
 clq194: x87 + x94 + x100 <= 1
 clq195: x2 + x135 <= 1
 clq196: x15 + x59 <= 1
 clq197: x14 + x95 + x146 <= 1
 clq198: x12 + x84 + x123 <= 1
 clq199: x101 + x115 + x149 <= 1
 clq200: x9 + x118 <= 1
 clq201: x6 + x11 + x45 <= 1
 clq202: x51 + x65 + x134 <= 1
 clq203: x40 + x55 + x138 <= 1
 clq204: x18 + x72 + x111 <= 1
 clq205: x15 + x30 + x37 <= 1
 clq206: x96 + x127 + x141 <= 1
 clq207: x17 + x135 <= 1
 clq208: x34 + x56 + x63 <= 1
 clq209: x43 + x140 + x149 <= 1
 clq210: x52 + x64 <= 1
 clq211: x41 + x61 <= 1
 clq212: x73 + x78 + x140 <= 1
 clq213: x91 + x145 <= 1
 clq214: x24 + x98 + x130 <= 1
 clq215: x67 + x85 + x139 <= 1
 clq216: x76 + x80 + x112 <= 1
 clq217: x52 + x140 + x149 <= 1
 clq218: x100 + x119 + x140 <= 1
 clq219: x90 + x96 + x111 <= 1
 clq220: x3 + x94 + x111 <= 1
 clq221: x48 + x57 + x88 <= 1
 clq222: x55 + x60 + x118 <= 1
 clq223: x113 + x120 <= 1
 clq224: x28 + x104 <= 1
 clq225: x83 + x89 <= 1
 clq226: x30 + x133 <= 1
 clq227: x100 + x102 + x146 <= 1
 clq228: x59 + x96 + x119 <= 1
 clq229: x17 + x57 <= 1
 clq230: x7 + x116 <= 1
 clq231: x82 + x93 + x108 <= 1
 clq232: x68 + x95 + x111 <= 1
 clq233: x39 + x41 + x111 <= 1
 clq234: x30 + x60 + x98 <= 1
 clq235: x93 + x106 <= 1
 clq236: x42 + x86 + x93 <= 1
 clq237: x16 + x35 + x138 <= 1
 clq238: x3 + x9 + x80 <= 1
 clq239: x10 + x32 <= 1
 clq240: x20 + x32 + x53 <= 1
 clq241: x20 + x112 <= 1
 clq242: x76 + x117 <= 1
 clq243: x72 + x83 + x136 <= 1
 clq244: x30 + x35 + x40 <= 1
 clq245: x55 + x65 + x134 <= 1
 clq246: x5 + x89 <= 1
 clq247: x47 + x102 <= 1
 clq248: x61 + x72 + x83 <= 1
 clq249: x19 + x79 + x87 <= 1
 clq250: x5 + x99 <= 1
 clq251: x52 + x110 <= 1
 clq252: x18 + x66 + x122 <= 1
 clq253: x44 + x83 + x121 <= 1
 clq254: x47 + x104 + x143 <= 1
 clq255: x99 + x144 <= 1
 clq256: x78 + x130 <= 1
 clq257: x62 + x88 <= 1
 clq258: x14 + x35 + x82 <= 1
 clq259: x1 + x15 + x37 + x127 <= 1
 clq260: x11 + x46 + x78 <= 1
 clq261: x10 + x23 + x92 <= 1
 clq262: x92 + x131 + x137 <= 1
 clq263: x30 + x37 + x136 <= 1
 clq264: x11 + x102 + x107 <= 1
 clq265: x100 + x102 + x107 <= 1
 clq266: x30 + x75 + x117 <= 1
 clq267: x121 + x131 + x147 <= 1
 clq268: x23 + x49 + x93 <= 1
 clq269: x35 + x45 + x64 + x65 <= 1
 clq270: x55 + x108 <= 1
 clq271: x16 + x97 <= 1
 clq272: x47 + x56 + x139 <= 1
 clq273: x3 + x32 <= 1
 clq274: x21 + x29 + x47 <= 1
 clq275: x31 + x116 + x138 <= 1
 clq276: x29 + x45 <= 1
 clq277: x12 + x115 + x144 <= 1
 clq278: x100 + x136 + x147 <= 1
 clq279: x23 + x146 <= 1
 clq280: x53 + x57 + x79 <= 1
 clq281: x14 + x74 + x144 <= 1
 clq282: x94 + x100 + x137 <= 1
 clq283: x78 + x123 <= 1
 clq284: x12 + x35 + x39 <= 1
 clq285: x76 + x95 <= 1
 clq286: x39 + x60 + x85 <= 1
 clq287: x85 + x103 + x125 + x144 <= 1
 clq288: x86 + x128 <= 1
 clq289: x19 + x62 <= 1
 clq290: x58 + x139 + x142 <= 1
 clq291: x89 + x107 <= 1
 clq292: x34 + x75 + x106 <= 1
 clq293: x23 + x34 + x75 <= 1
 clq294: x51 + x61 <= 1
 clq295: x34 + x91 <= 1
 clq296: x57 + x114 <= 1
 clq297: x71 + x101 <= 1
 clq298: x43 + x119 + x137 <= 1
 clq299: x42 + x95 + x146 <= 1
 clq300: x87 + x100 + x147 <= 1
 clq301: x23 + x104 + x150 <= 1
 clq302: x35 + x40 + x130 <= 1
 clq303: x88 + x92 <= 1
 clq304: x17 + x32 <= 1
 clq305: x20 + x33 + x34 <= 1
 clq306: x96 + x123 + x134 <= 1
 clq307: x73 + x112 + x128 <= 1
 clq308: x73 + x78 + x133 <= 1
 clq309: x3 + x80 + x112 <= 1
 clq310: x5 + x49 + x116 <= 1
 clq311: x8 + x55 + x139 <= 1
 clq312: x41 + x76 <= 1
 clq313: x4 + x124 <= 1
 clq314: x10 + x54 + x92 <= 1
 clq315: x23 + x127 <= 1
 clq316: x25 + x100 + x135 <= 1
 clq317: x90 + x101 <= 1
 clq318: x100 + x120 + x137 <= 1
 clq319: x22 + x44 + x98 <= 1
 clq320: x8 + x137 + x141 <= 1
 clq321: x20 + x46 <= 1
 clq322: x6 + x9 <= 1
 clq323: x53 + x143 <= 1
 clq324: x101 + x108 + x116 <= 1
 clq325: x94 + x96 + x141 <= 1
 clq326: x49 + x108 + x133 <= 1
 clq327: x29 + x53 + x83 <= 1
 clq328: x28 + x58 + x139 <= 1
 clq329: x21 + x143 + x146 <= 1
 clq330: x34 + x132 <= 1
 clq331: x14 + x21 + x146 <= 1
 clq332: x34 + x69 + x81 <= 1
 clq333: x22 + x120 <= 1
 clq334: x85 + x138 + x144 <= 1
 clq335: x12 + x66 + x119 <= 1
 clq336: x10 + x23 + x118 <= 1
 clq337: x12 + x113 + x150 <= 1
 clq338: x69 + x81 + x147 <= 1
 clq339: x37 + x39 <= 1
 clq340: x76 + x136 <= 1
 clq341: x14 + x25 + x109 <= 1
 clq342: x42 + x113 <= 1
 clq343: x73 + x104 + x137 <= 1
 clq344: x13 + x110 + x145 <= 1
 clq345: x46 + x77 + x137 <= 1
 clq346: x13 + x114 <= 1
 clq347: x54 + x89 + x94 <= 1
 clq348: x16 + x68 + x129 <= 1
 clq349: x25 + x72 <= 1
 clq350: x20 + x123 + x136 <= 1
 clq351: x51 + x94 <= 1
 clq352: x65 + x111 + x120 <= 1
 clq353: x11 + x104 + x135 <= 1
 clq354: x117 + x149 <= 1
 clq355: x11 + x95 + x111 <= 1
 clq356: x8 + x31 <= 1
 clq357: x95 + x140 <= 1
 clq358: x29 + x76 <= 1
 clq359: x11 + x32 + x95 <= 1
 clq360: x1 + x10 + x126 <= 1
 clq361: x44 + x135 <= 1
 clq362: x21 + x96 + x148 <= 1
 clq363: x69 + x128 + x150 <= 1
 clq364: x10 + x103 <= 1
 clq365: x14 + x36 + x88 <= 1
 clq366: x91 + x112 <= 1
 clq367: x24 + x46 <= 1
 clq368: x8 + x21 + x48 + x142 <= 1
 clq369: x55 + x67 + x131 <= 1
 clq370: x16 + x35 + x44 <= 1
 clq371: x53 + x91 + x126 <= 1
 clq372: x86 + x111 + x120 <= 1
 clq373: x8 + x32 <= 1
 clq374: x100 + x119 + x146 <= 1
 clq375: x87 + x92 + x133 <= 1
 clq376: x18 + x55 + x139 <= 1
 clq377: x33 + x34 + x64 <= 1
 clq378: x64 + x87 + x133 <= 1
 clq379: x72 + x107 + x147 <= 1
 clq380: x41 + x103 + x125 <= 1
 clq381: x57 + x88 + x130 <= 1
 clq382: x5 + x105 + x123 <= 1
 clq383: x66 + x83 + x136 <= 1
 clq384: x16 + x66 <= 1
 clq385: x33 + x125 + x140 <= 1
 clq386: x88 + x99 <= 1
 clq387: x111 + x120 + x137 <= 1
 clq388: x32 + x121 + x147 <= 1
 clq389: x13 + x31 + x133 <= 1
 clq390: x26 + x85 + x122 <= 1
 clq391: x52 + x67 + x89 <= 1
 clq392: x36 + x48 + x88 <= 1
 clq393: x27 + x123 + x134 <= 1
 clq394: x115 + x134 <= 1
 clq395: x1 + x125 + x127 <= 1
 clq396: x18 + x63 + x111 <= 1
 clq397: x56 + x78 + x139 <= 1
 clq398: x50 + x145 <= 1
 clq399: x10 + x23 + x75 <= 1
 clq400: x93 + x109 <= 1
 clq401: x12 + x119 + x144 <= 1
 clq402: x61 + x68 <= 1
 clq403: x73 + x74 + x78 <= 1
 clq404: x19 + x26 + x98 <= 1
 clq405: x1 + x73 + x133 <= 1
 clq406: x16 + x86 + x120 <= 1
 clq407: x103 + x148 <= 1
 clq408: x52 + x76 <= 1
 clq409: x36 + x50 + x117 <= 1
 clq410: x5 + x98 + x104 <= 1
 clq411: x37 + x48 + x149 <= 1
 clq412: x90 + x106 <= 1
 clq413: x3 + x28 + x42 <= 1
 clq414: x133 + x141 <= 1
 clq415: x8 + x49 + x139 <= 1
 clq416: x2 + x57 + x116 <= 1
 clq417: x67 + x98 + x139 <= 1
 clq418: x3 + x9 + x70 <= 1
 clq419: x21 + x143 + x145 <= 1
 clq420: x10 + x105 <= 1
 clq421: x16 + x76 <= 1
 clq422: x40 + x79 + x119 <= 1
 clq423: x56 + x63 + x126 <= 1
 clq424: x98 + x134 <= 1
 clq425: x86 + x110 + x131 + x134 <= 1
 clq426: x19 + x26 + x73 <= 1
 clq427: x46 + x83 <= 1
 clq428: x30 + x137 <= 1
 clq429: x62 + x150 <= 1
 clq430: x1 + x22 + x126 <= 1
 clq431: x94 + x106 <= 1
 clq432: x6 + x14 + x95 <= 1
 clq433: x70 + x86 <= 1
 clq434: x9 + x69 <= 1
 clq435: x5 + x18 + x140 <= 1
 clq436: x26 + x125 + x140 <= 1
 clq437: x100 + x103 <= 1
 clq438: x31 + x75 + x138 <= 1
 clq439: x25 + x39 + x94 <= 1
 clq440: x18 + x73 + x139 <= 1
 clq441: x18 + x45 + x121 + x127 <= 1
 clq442: x12 + x119 + x137 <= 1
 clq443: x24 + x27 + x93 <= 1
 clq444: x25 + x53 + x94 <= 1
 clq445: x86 + x93 + x141 <= 1
 clq446: x21 + x64 + x143 <= 1
 clq447: x24 + x35 + x130 <= 1
 clq448: x12 + x35 + x45 <= 1
 clq449: x105 + x150 <= 1
 clq450: x59 + x109 + x143 <= 1
 clq451: x34 + x64 + x87 <= 1
 clq452: x13 + x31 + x110 <= 1
 clq453: x86 + x110 + x120 <= 1
 clq454: x19 + x52 <= 1
 clq455: x24 + x66 + x122 <= 1
 clq456: x111 + x118 <= 1
 clq457: x36 + x88 + x110 <= 1
 clq458: x45 + x89 <= 1
 clq459: x3 + x30 + x33 <= 1
 clq460: x48 + x124 <= 1
 clq461: x36 + x88 + x127 <= 1
 clq462: x3 + x94 + x141 <= 1
 clq463: x52 + x82 <= 1
 clq464: x14 + x50 + x144 <= 1
 clq465: x19 + x73 + x81 <= 1
 clq466: x77 + x118 <= 1
 clq467: x23 + x24 + x148 <= 1
 clq468: x6 + x62 + x141 <= 1
 clq469: x101 + x112 <= 1
 clq470: x16 + x27 + x124 + x129 <= 1
 clq471: x56 + x124 <= 1
 clq472: x24 + x100 <= 1
 clq473: x38 + x52 <= 1
 clq474: x17 + x76 <= 1
 clq475: x9 + x35 + x44 <= 1
 clq476: x18 + x73 + x140 <= 1
 clq477: x78 + x87 + x133 <= 1
 clq478: x40 + x50 + x119 <= 1
 clq479: x12 + x21 <= 1
 clq480: x22 + x85 + x144 <= 1
 clq481: x44 + x121 + x130 <= 1
 clq482: x77 + x132 <= 1
 clq483: x60 + x78 + x85 + x139 <= 1
 clq484: x68 + x80 <= 1
 clq485: x18 + x94 + x111 <= 1
 clq486: x4 + x25 <= 1
 clq487: x8 + x48 + x55 <= 1
 clq488: x40 + x79 + x85 <= 1
 clq489: x49 + x121 <= 1
 clq490: x18 + x45 + x63 <= 1
 clq491: x75 + x109 <= 1
 clq492: x58 + x110 <= 1
 clq493: x30 + x60 + x136 <= 1
 clq494: x19 + x53 + x79 <= 1
 clq495: x19 + x144 <= 1
 clq496: x1 + x114 + x142 <= 1
 clq497: x88 + x89 <= 1
 clq498: x26 + x56 + x77 <= 1
 clq499: x29 + x83 + x97 <= 1
 clq500: x84 + x132 <= 1
 clq501: x43 + x125 + x140 <= 1
 clq502: x80 + x82 + x135 <= 1
 clq503: x53 + x70 + x83 <= 1
 clq504: x96 + x119 + x148 <= 1
 clq505: x2 + x111 + x116 <= 1
 clq506: x2 + x22 <= 1
 clq507: x30 + x33 + x54 + x117 <= 1
 clq508: x2 + x116 + x134 <= 1
 clq509: x13 + x100 + x140 <= 1
 clq510: x8 + x123 <= 1
 clq511: x55 + x132 <= 1
 clq512: x92 + x107 + x143 <= 1
 clq513: x94 + x97 <= 1
 clq514: x71 + x104 + x135 <= 1
 clq515: x1 + x11 + x126 <= 1
 clq516: x37 + x61 + x148 <= 1
 clq517: x45 + x58 + x91 <= 1
 clq518: x12 + x95 + x114 <= 1
 clq519: x26 + x72 + x147 <= 1
 clq520: x35 + x40 + x45 <= 1
 clq521: x18 + x74 + x144 <= 1
 clq522: x103 + x150 <= 1
 clq523: x22 + x46 + x49 <= 1
 clq524: x23 + x75 + x140 <= 1
 clq525: x5 + x62 + x101 + x141 <= 1
 clq526: x24 + x114 <= 1
 clq527: x130 + x137 + x141 <= 1
 clq528: x36 + x47 + x106 <= 1
 clq529: x80 + x149 <= 1
 clq530: x114 + x121 + x138 <= 1
 clq531: x88 + x108 <= 1
 clq532: x12 + x97 <= 1
 clq533: x80 + x81 + x96 <= 1
 clq534: x71 + x127 + x138 <= 1
 clq535: x62 + x111 <= 1
 clq536: x37 + x90 + x144 <= 1
 clq537: x25 + x31 + x135 <= 1
 clq538: x6 + x103 + x108 <= 1
 clq539: x72 + x103 <= 1
 clq540: x61 + x101 + x115 <= 1
 clq541: x11 + x82 + x135 <= 1
 clq542: x29 + x59 <= 1
 clq543: x62 + x91 <= 1
 clq544: x104 + x121 <= 1
 clq545: x49 + x94 + x100 <= 1
 clq546: x17 + x55 <= 1
 clq547: x21 + x80 + x96 <= 1
 clq548: x39 + x94 + x111 <= 1
 clq549: x38 + x125 <= 1
 clq550: x28 + x122 <= 1
 clq551: x1 + x74 + x142 <= 1
 clq552: x2 + x113 <= 1
 clq553: x32 + x120 <= 1
 clq554: x42 + x83 <= 1
 clq555: x19 + x31 + x68 <= 1
 clq556: x26 + x98 + x147 <= 1
 clq557: x76 + x132 <= 1
 clq558: x43 + x51 + x119 <= 1
 clq559: x2 + x4 + x92 <= 1
 clq560: x87 + x122 <= 1
 clq561: x85 + x102 <= 1
 clq562: x12 + x118 <= 1
 clq563: x29 + x93 + x149 <= 1
 clq564: x38 + x100 <= 1
 clq565: x4 + x28 <= 1
 clq566: x43 + x107 <= 1
 clq567: x23 + x118 + x134 <= 1
 clq568: x21 + x89 <= 1
 clq569: x12 + x79 + x84 <= 1
 clq570: x52 + x60 + x92 <= 1
 clq571: x1 + x11 + x102 <= 1
 clq572: x101 + x113 + x149 <= 1
 clq573: x67 + x135 <= 1
 clq574: x60 + x139 + x142 <= 1
 clq575: x4 + x64 <= 1
 clq576: x8 + x48 + x54 <= 1
 clq577: x6 + x11 + x135 <= 1
 clq578: x1 + x11 + x58 + x127 <= 1
 clq579: x25 + x88 + x100 + x119 <= 1
 clq580: x47 + x106 + x150 <= 1
 clq581: x48 + x140 + x149 <= 1
 clq582: x10 + x25 <= 1
 clq583: x45 + x65 + x80 <= 1
 clq584: x52 + x92 + x149 <= 1
 clq585: x71 + x147 <= 1
 clq586: x13 + x60 <= 1
 clq587: x44 + x62 <= 1
 clq588: x27 + x36 + x83 <= 1
 clq589: x17 + x102 + x146 <= 1
 clq590: x14 + x36 + x106 <= 1
 clq591: x64 + x66 + x143 <= 1
 clq592: x58 + x98 + x139 <= 1
 clq593: x29 + x39 <= 1
 clq594: x63 + x110 + x131 <= 1
 clq595: x39 + x41 + x60 <= 1
 clq596: x13 + x70 + x83 <= 1
 clq597: x69 + x109 + x147 <= 1
 clq598: x27 + x59 <= 1
 clq599: x14 + x35 + x39 <= 1
 clq600: x53 + x126 + x148 <= 1
 clq601: x80 + x96 + x141 <= 1
 clq602: x43 + x51 + x65 <= 1
 clq603: x30 + x71 <= 1
 clq604: x76 + x85 <= 1
 clq605: x48 + x111 <= 1
 clq606: x16 + x73 <= 1
 clq607: x64 + x87 + x95 <= 1
 clq608: x45 + x65 + x91 <= 1
 clq609: x34 + x116 <= 1
 clq610: x47 + x70 <= 1
 clq611: x88 + x104 <= 1
 clq612: x64 + x105 <= 1
 clq613: x2 + x74 <= 1
 clq614: x86 + x123 + x134 <= 1
 clq615: x2 + x33 + x57 <= 1
 clq616: x28 + x119 + x144 <= 1
 clq617: x57 + x68 + x71 <= 1
 clq618: x14 + x17 + x74 <= 1
 clq619: x101 + x114 + x115 + x142 <= 1
 clq620: x22 + x47 <= 1
 clq621: x56 + x63 + x142 <= 1
 clq622: x11 + x70 <= 1
 clq623: x18 + x69 <= 1
 clq624: x89 + x113 + x131 <= 1
 clq625: x61 + x81 + x115 <= 1
 clq626: x37 + x93 + x149 <= 1
 clq627: x64 + x84 <= 1
 clq628: x59 + x98 + x139 <= 1
 clq629: x40 + x56 + x97 <= 1
 clq630: x7 + x43 + x65 <= 1
 clq631: x58 + x92 <= 1
 clq632: x39 + x132 <= 1
 clq633: x22 + x66 + x119 <= 1
 clq634: x32 + x99 <= 1
 clq635: x16 + x102 <= 1
 clq636: x94 + x110 <= 1
 clq637: x104 + x143 + x145 <= 1
 clq638: x82 + x93 + x105 <= 1
 clq639: x33 + x111 + x115 <= 1
 clq640: x16 + x42 + x86 <= 1
 clq641: x2 + x35 <= 1
 clq642: x48 + x121 <= 1
 clq643: x19 + x81 + x84 <= 1
 clq644: x82 + x87 + x129 <= 1
 clq645: x124 + x125 + x144 <= 1
 clq646: x2 + x5 + x92 <= 1
 clq647: x54 + x57 + x81 <= 1
 clq648: x11 + x58 + x95 <= 1
 clq649: x10 + x44 <= 1
 clq650: x14 + x20 + x133 <= 1
 clq651: x19 + x33 + x120 <= 1
 clq652: x20 + x102 <= 1
 clq653: x15 + x17 <= 1
 clq654: x52 + x54 + x92 <= 1
 clq655: x5 + x140 + x141 <= 1
 clq656: x32 + x122 <= 1
 clq657: x59 + x114 <= 1
 clq658: x126 + x136 <= 1
 clq659: x26 + x37 + x128 <= 1
 clq660: x5 + x105 + x141 <= 1
 clq661: x41 + x107 <= 1
 clq662: x46 + x64 <= 1
 clq663: x1 + x28 + x58 <= 1
 clq664: x62 + x93 + x141 <= 1
 clq665: x2 + x4 + x141 <= 1
Bounds
 0 <= x1 <= 1
 0 <= x2 <= 1
 0 <= x3 <= 1
 0 <= x4 <= 1
 0 <= x5 <= 1
 0 <= x6 <= 1
 0 <= x7 <= 1
 0 <= x8 <= 1
 0 <= x9 <= 1
 0 <= x10 <= 1
 0 <= x11 <= 1
 0 <= x12 <= 1
 0 <= x13 <= 1
 0 <= x14 <= 1
 0 <= x15 <= 1
 0 <= x16 <= 1
 0 <= x17 <= 1
 0 <= x18 <= 1
 0 <= x19 <= 1
 0 <= x20 <= 1
 0 <= x21 <= 1
 0 <= x22 <= 1
 0 <= x23 <= 1
 0 <= x24 <= 1
 0 <= x25 <= 1
 0 <= x26 <= 1
 0 <= x27 <= 1
 0 <= x28 <= 1
 0 <= x29 <= 1
 0 <= x30 <= 1
 0 <= x31 <= 1
 0 <= x32 <= 1
 0 <= x33 <= 1
 0 <= x34 <= 1
 0 <= x35 <= 1
 0 <= x36 <= 1
 0 <= x37 <= 1
 0 <= x38 <= 1
 0 <= x39 <= 1
 0 <= x40 <= 1
 0 <= x41 <= 1
 0 <= x42 <= 1
 0 <= x43 <= 1
 0 <= x44 <= 1
 0 <= x45 <= 1
 0 <= x46 <= 1
 0 <= x47 <= 1
 0 <= x48 <= 1
 0 <= x49 <= 1
 0 <= x50 <= 1
 0 <= x51 <= 1
 0 <= x52 <= 1
 0 <= x53 <= 1
 0 <= x54 <= 1
 0 <= x55 <= 1
 0 <= x56 <= 1
 0 <= x57 <= 1
 0 <= x58 <= 1
 0 <= x59 <= 1
 0 <= x60 <= 1
 0 <= x61 <= 1
 0 <= x62 <= 1
 0 <= x63 <= 1
 0 <= x64 <= 1
 0 <= x65 <= 1
 0 <= x66 <= 1
 0 <= x67 <= 1
 0 <= x68 <= 1
 0 <= x69 <= 1
 0 <= x70 <= 1
 0 <= x71 <= 1
 0 <= x72 <= 1
 0 <= x73 <= 1
 0 <= x74 <= 1
 0 <= x75 <= 1
 0 <= x76 <= 1
 0 <= x77 <= 1
 0 <= x78 <= 1
 0 <= x79 <= 1
 0 <= x80 <= 1
 0 <= x81 <= 1
 0 <= x82 <= 1
 0 <= x83 <= 1
 0 <= x84 <= 1
 0 <= x85 <= 1
 0 <= x86 <= 1
 0 <= x87 <= 1
 0 <= x88 <= 1
 0 <= x89 <= 1
 0 <= x90 <= 1
 0 <= x91 <= 1
 0 <= x92 <= 1
 0 <= x93 <= 1
 0 <= x94 <= 1
 0 <= x95 <= 1
 0 <= x96 <= 1
 0 <= x97 <= 1
 0 <= x98 <= 1
 0 <= x99 <= 1
 0 <= x100 <= 1
 0 <= x101 <= 1
 0 <= x102 <= 1
 0 <= x103 <= 1
 0 <= x104 <= 1
 0 <= x105 <= 1
 0 <= x106 <= 1
 0 <= x107 <= 1
 0 <= x108 <= 1
 0 <= x109 <= 1
 0 <= x110 <= 1
 0 <= x111 <= 1
 0 <= x112 <= 1
 0 <= x113 <= 1
 0 <= x114 <= 1
 0 <= x115 <= 1
 0 <= x116 <= 1
 0 <= x117 <= 1
 0 <= x118 <= 1
 0 <= x119 <= 1
 0 <= x120 <= 1
 0 <= x121 <= 1
 0 <= x122 <= 1
 0 <= x123 <= 1
 0 <= x124 <= 1
 0 <= x125 <= 1
 0 <= x126 <= 1
 0 <= x127 <= 1
 0 <= x128 <= 1
 0 <= x129 <= 1
 0 <= x130 <= 1
 0 <= x131 <= 1
 0 <= x132 <= 1
 0 <= x133 <= 1
 0 <= x134 <= 1
 0 <= x135 <= 1
 0 <= x136 <= 1
 0 <= x137 <= 1
 0 <= x138 <= 1
 0 <= x139 <= 1
 0 <= x140 <= 1
 0 <= x141 <= 1
 0 <= x142 <= 1
 0 <= x143 <= 1
 0 <= x144 <= 1
 0 <= x145 <= 1
 0 <= x146 <= 1
 0 <= x147 <= 1
 0 <= x148 <= 1
 0 <= x149 <= 1
 0 <= x150 <= 1
Binaries
 x1  x2  x3  x4  x5  x6  x7  x8  x9  x10  x11  x12  x13  x14  x15  x16  x17 
 x18  x19  x20  x21  x22  x23  x24  x25  x26  x27  x28  x29  x30  x31  x32 
 x33  x34  x35  x36  x37  x38  x39  x40  x41  x42  x43  x44  x45  x46  x47 
 x48  x49  x50  x51  x52  x53  x54  x55  x56  x57  x58  x59  x60  x61  x62 
 x63  x64  x65  x66  x67  x68  x69  x70  x71  x72  x73  x74  x75  x76  x77 
 x78  x79  x80  x81  x82  x83  x84  x85  x86  x87  x88  x89  x90  x91  x92 
 x93  x94  x95  x96  x97  x98  x99  x100  x101  x102  x103  x104  x105  x106 
 x107  x108  x109  x110  x111  x112  x113  x114  x115  x116  x117  x118  x119 
 x120  x121  x122  x123  x124  x125  x126  x127  x128  x129  x130  x131  x132 
 x133  x134  x135  x136  x137  x138  x139  x140  x141  x142  x143  x144  x145 
 x146  x147  x148  x149  x150 
End
